Assets/LKHProbs~/skull.9.tsp
NAME : GeneratedProblem
COMMENT : SVGCrosshatch
TYPE : TSP
DIMENSION : 53
EDGE_WEIGHT_TYPE : EUC_2D
NODE_COORD_SECTION
1 6600 200
2 6600 300
3 6700 200
4 6700 300
5 6700 400
6 6700 500
7 6800 200
8 6800 300
9 6800 400
10 6800 500
11 6800 600
12 6800 700
13 6900 200
14 6900 300
15 6900 400
16 6900 500
17 6900 600
18 6900 700
19 6900 800
20 6900 900
21 7000 200
22 7000 300
23 7000 400
24 7000 500
25 7000 600
26 7000 700
27 7000 800
28 7000 900
29 7000 1000
30 7100 400
31 7100 500
32 7100 600
33 7100 700
34 7100 800
35 7100 900
36 7100 1000
37 7200 500
38 7200 600
39 7200 700
40 7200 800
41 7200 900
42 7200 1000
43 7200 1100
44 7200 1200
45 7200 1300
46 7300 500
47 7300 600
48 7300 700
49 7300 800
50 7300 900
51 7300 1000
52 7300 1100
53 7400 900
EOF
