Assets/LKHProbs~/skull.9.out.txt
NAME : GeneratedProblem.5465.tour
COMMENT : Length = 5465
COMMENT : Found by LKH [Keld Helsgaun] Sun Nov 25 13:17:36 2018
TYPE : TOUR
DIMENSION : 53
TOUR_SECTION
1
2
4
5
6
10
11
12
18
17
25
26
27
19
20
28
29
36
42
43
44
45
52
51
53
50
49
40
41
35
34
33
39
48
47
46
37
38
32
31
30
23
24
16
15
9
8
14
22
21
13
7
3
-1
EOF
